
<<< setup


<<< generate

Version identifier: 12.10.0.0 | 2019-11-26 | 843d4de2ae
CPXPARAM_TimeLimit                               1200
Tried aggregator 2 times.
MIP Presolve eliminated 5176301 rows and 2943736 columns.
MIP Presolve modified 408028 coefficients.
Aggregator did 1643 substitutions.
Reduced MIP has 72706 rows, 73671 columns, and 446224 nonzeros.
Reduced MIP has 73621 binaries, 0 generals, 0 SOSs, and 0 indicators.
Presolve time = 6.33 sec. (3790.55 ticks)
Found incumbent of value 0.000000 after 9.48 sec. (4778.35 ticks)
Probing fixed 138 vars, tightened 0 bounds.
Probing time = 2.74 sec. (457.54 ticks)
Tried aggregator 1 time.
Detecting symmetries...
MIP Presolve eliminated 138 rows and 138 columns.
Reduced MIP has 72568 rows, 73533 columns, and 445262 nonzeros.
Reduced MIP has 73483 binaries, 0 generals, 0 SOSs, and 0 indicators.
Presolve time = 0.56 sec. (301.16 ticks)
Probing time = 0.23 sec. (28.63 ticks)
Clique table members: 253012.
MIP emphasis: balance optimality and feasibility.
MIP search method: dynamic search.
Parallel mode: deterministic, using up to 4 threads.
Root relaxation solution time = 11.09 sec. (5152.87 ticks)

        Nodes                                         Cuts/
   Node  Left     Objective  IInf  Best Integer    Best Bound    ItCnt     Gap

*     0+    0                            0.0000   130089.0000              --- 
      0     0   130089.0000  1053        0.0000   130089.0000    18486     --- 
      0     0   130089.0000  1053        0.0000      Cuts: 31    18850     --- 
      0     0   130089.0000  1053        0.0000    Cuts: 9400    53917     --- 
      0     0   130089.0000  1053        0.0000     Cuts: 748    68541     --- 
Heuristic still looking.
      0     2   130089.0000   750        0.0000   130089.0000   111073     --- 
Elapsed time = 799.56 sec. (437292.07 ticks, tree = 0.02 MB, solutions = 1)
      1     3   130089.0000   710        0.0000   130089.0000   141620     --- 
      2     3   130089.0000   767        0.0000   130089.0000   135513     --- 
      3     4   130089.0000   719        0.0000   130089.0000   156271     --- 
      4     5   130089.0000   910        0.0000   130089.0000   190123     --- 
      5     6   130089.0000   890        0.0000   130089.0000   204026     --- 
      6     8   130089.0000   942        0.0000   130089.0000   233675     --- 
      7     7   130089.0000   839        0.0000   130089.0000   228628     --- 
      9     9   130089.0000   974        0.0000   130089.0000   237506     --- 
     10    10   130089.0000  1041        0.0000   130089.0000   238727     --- 
     11     5   130089.0000   926        0.0000   130089.0000   184275     --- 
Elapsed time = 951.39 sec. (506653.65 ticks, tree = 0.02 MB, solutions = 1)
     13    10   130089.0000   937        0.0000   130089.0000   276790     --- 
     15    11   130089.0000  1017        0.0000   130089.0000   280456     --- 
     17     9   130089.0000  1086        0.0000   130089.0000   259743     --- 
     19    13   130089.0000   822        0.0000   130089.0000   282821     --- 
     20    11   130089.0000   796        0.0000   130089.0000   262888     --- 
     21    12   130089.0000   837        0.0000   130089.0000   242495     --- 
     22    15   130089.0000  1020        0.0000   130089.0000   286474     --- 
     24    17   130089.0000   960        0.0000   130089.0000   289314     --- 
     26    12   130089.0000   759        0.0000   130089.0000   264065     --- 
     28    20   130089.0000   917        0.0000   130089.0000   293713     --- 
Elapsed time = 995.38 sec. (526172.14 ticks, tree = 0.46 MB, solutions = 1)
     30    15   130089.0000  1008        0.0000   130089.0000   285068     --- 
     32    17   130089.0000   958        0.0000   130089.0000   288828     --- 
     34    21   130089.0000  1045        0.0000   130089.0000   297531     --- 
     38    29   130089.0000   975        0.0000   130089.0000   321569     --- 
     40    30   130089.0000  1049        0.0000   130089.0000   323161     --- 
     45    32   130089.0000  1033        0.0000   130089.0000   325227     --- 
     47    34   130089.0000  1017        0.0000   130089.0000   327575     --- 
     51    25   130089.0000   840        0.0000   130089.0000   309738     --- 
     53    24   130089.0000   983        0.0000   130089.0000   316654     --- 
     56    38   130089.0000  1028        0.0000   130089.0000   332532     --- 
Elapsed time = 1025.06 sec. (540036.98 ticks, tree = 0.88 MB, solutions = 1)
     58    47   130089.0000  1029        0.0000   130089.0000   370002     --- 
     60    40   130089.0000  1053        0.0000   130089.0000   337690     --- 
     62    59   130089.0000  1062        0.0000   130089.0000   387325     --- 
     66    61   130089.0000  1045        0.0000   130089.0000   391443     --- 
     68    63   130089.0000  1015        0.0000   130089.0000   394599     --- 
     70    40   130089.0000   931        0.0000   130089.0000   346953     --- 
     74    67   130089.0000  1050        0.0000   130089.0000   406547     --- 
     80    69   130089.0000  1072        0.0000   130089.0000   411311     --- 
     82    44   130089.0000   991        0.0000   130089.0000   354276     --- 
     86    64   130089.0000   993        0.0000   130089.0000   395655     --- 
Elapsed time = 1058.02 sec. (554935.79 ticks, tree = 1.35 MB, solutions = 1)
     90    66   130089.0000   960        0.0000   130089.0000   397647     --- 
     92    80   130089.0000  1081        0.0000   130089.0000   437565     --- 
     96    82   130089.0000  1065        0.0000   130089.0000   441233     --- 
     99    70   130089.0000   969        0.0000   130089.0000   403890     --- 
    103    86   130089.0000  1009        0.0000   130089.0000   449027     --- 
    107    86    infeasible              0.0000   130089.0000   449752     --- 
    109    80   130089.0000  1472        0.0000   130089.0000   471784     --- 
    113    88   130089.0000   954        0.0000   130089.0000   453617     --- 
    116   100   130089.0000   992        0.0000   130089.0000   500341     --- 
    125    91   130089.0000   906        0.0000   130089.0000   482030     --- 
Elapsed time = 1085.70 sec. (570114.35 ticks, tree = 1.80 MB, solutions = 1)
    127    92   130089.0000   981        0.0000   130089.0000   485462     --- 
    132    94   130089.0000   930        0.0000   130089.0000   489246     --- 
    137   105   130089.0000   993        0.0000   130089.0000   511100     --- 
    139    83   130089.0000  1004        0.0000   130089.0000   492043     --- 
    143   106   130089.0000   976        0.0000   130089.0000   515591     --- 
    144   107   130089.0000  1019        0.0000   130089.0000   519568     --- 
    148   113   130089.0000   961        0.0000   130089.0000   539480     --- 
    153   112   130089.0000  1074        0.0000   130089.0000   564911     --- 
    154   113   130089.0000  1038        0.0000   130089.0000   566330     --- 
    156   115   130089.0000  1093        0.0000   130089.0000   546157     --- 
Elapsed time = 1111.11 sec. (583474.26 ticks, tree = 2.43 MB, solutions = 1)
    160   140   130089.0000   949        0.0000   130089.0000   647027     --- 
    165   130   130089.0000  1052        0.0000   130089.0000   616565     --- 
    167   141   130089.0000  1032        0.0000   130089.0000   650499     --- 
    171   132   130089.0000  1035        0.0000   130089.0000   620489     --- 
    173   143   130089.0000  1003        0.0000   130089.0000   652651     --- 
    181   122   130089.0000   952        0.0000   130089.0000   596944     --- 
    183   136   130089.0000  1137        0.0000   130089.0000   631774     --- 
    189   152   130089.0000  1086        0.0000   130089.0000   690431     --- 
    193   124   130089.0000   998        0.0000   130089.0000   607958     --- 
    199   149   130089.0000  1063        0.0000   130089.0000   666278     --- 
Elapsed time = 1147.61 sec. (601634.03 ticks, tree = 3.39 MB, solutions = 1)
    203   164   130089.0000   932        0.0000   130089.0000   730863     --- 
    205   165   130089.0000   893        0.0000   130089.0000   731889     --- 
    209   174   130089.0000   932        0.0000   130089.0000   751358     --- 
    215   167   130089.0000   893        0.0000   130089.0000   734801     --- 
    217   169   130089.0000   977        0.0000   130089.0000   737420     --- 
    223   171   130089.0000   939        0.0000   130089.0000   741286     --- 
    224   157   130089.0000   861        0.0000   130089.0000   724348     --- 
    227   188   130089.0000  1000        0.0000   130089.0000   787309     --- 
    229   173   130089.0000   781        0.0000   130089.0000   753671     --- 
    232   192   130089.0000  1027        0.0000   130089.0000   795243     --- 
Elapsed time = 1188.39 sec. (619276.64 ticks, tree = 4.64 MB, solutions = 1)
    234   159   130089.0000   882        0.0000   130089.0000   737031     --- 
    237   187   130089.0000   985        0.0000   130089.0000   800231     --- 
    241   196   130089.0000  1000        0.0000   130089.0000   805595     --- 
    243   198   130089.0000  1031        0.0000   130089.0000   807992     --- 
    250   193    infeasible              0.0000   130089.0000   829075     --- 
    254   200   130089.0000   968        0.0000   130089.0000   814770     --- 
    259   201   130089.0000   975        0.0000   130089.0000   820560     --- 

Clique cuts applied:  5
Implied bound cuts applied:  528
Flow cuts applied:  42
Mixed integer rounding cuts applied:  2

Root node processing (before b&c):
  Real time             =  751.66 sec. (406583.42 ticks)
Parallel b&c, 4 threads:
  Real time             =  448.81 sec. (221838.23 ticks)
  Sync time (average)   =   85.68 sec.
  Wait time (average)   =    0.00 sec.
                          ------------
Total (root+branch&cut) = 1200.47 sec. (628421.65 ticks)

<<< solve


OBJECTIVE: 0

<<< post process


<<< done

